NAME : berlin52.tsp
COMMENT : Optimal tour for berlin52.tsp
TYPE : TOUR
DIMENSION : 52
Total Length: 8346.1888494276
TOUR_SECTION
1
49
32
22
18
31
23
20
50
29
30
2
7
42
21
17
3
45
19
41
8
9
10
43
4
6
15
5
24
48
38
37
40
39
36
35
34
44
16
46
25
12
28
27
26
47
13
14
52
11
51
33
-1
EOF
